40
    56    25    76    35    28    52    21    32    64    67    48   100    94    87    39    18    78    80    56    72     4    70    36    46    85    31    96    30    66    92    33    18    19    34    18     4    42    94     4    89
     1     9     9     9     5     1     4     3     2     8     2     3     7     5     3     5     2     2     2     4     9     9     6     8     9     7     5     2     1     6     4     6     1     2    10    10     6     5     4     3
  1687  1738  1663  1480  1504  1826  1722  1660  1594  1445  1704  1660  1715  1701  1679  1516  1658  1611  1502  1685  1614  1647  1689  1615  1524  1800  1654  1752  1456  1452  1801  1713  1761  1513  1759  1484  1821  1448  1666  1611
